
Gurobi 11.0.0 (linux64) logging started Wed Nov 29 17:15:22 2023

Set parameter LogFile to value "wlp04-m-Location-Of-Facilities-GUROBI.txt"
Gurobi Optimizer version 11.0.0 build v11.0.0rc2 (linux64 - "Ubuntu 22.04.2 LTS")

CPU model: 11th Gen Intel(R) Core(TM) i5-1135G7 @ 2.40GHz, instruction set [SSE2|AVX|AVX2|AVX512]
Thread count: 4 physical cores, 8 logical processors, using up to 8 threads

Academic license 2443615 - for non-commercial use only - registered to th___@gmail.com
Optimize a model with 640277 rows, 639000 columns and 2554000 nonzeros
Model fingerprint: 0x6e80592d
Coefficient statistics:
  Matrix range     [1e+00, 2e+01]
  Objective range  [1e+00, 1e+03]
  Bounds range     [1e+00, 1e+00]
  RHS range        [1e+00, 1e+02]
Presolve time: 2.01s
Presolved: 640277 rows, 639000 columns, 2554000 nonzeros

Concurrent LP optimizer: dual simplex and barrier
Showing barrier log only...

Ordering time: 1.67s

Barrier statistics:
 Dense cols : 500
 AA' NZ     : 2.554e+06
 Factor NZ  : 4.835e+06 (roughly 600 MB of memory)
 Factor Ops : 2.963e+09 (less than 1 second per iteration)
 Threads    : 3

                  Objective                Residual
Iter       Primal          Dual         Primal    Dual     Compl     Time
   0   4.74844542e+06 -2.48407125e+05  1.20e+02 7.08e+01  2.90e+01     8s
   1   6.80693543e+05 -3.68580421e+05  1.58e+01 1.32e+01  4.64e+00     9s
   2   1.33697939e+05 -3.10701398e+05  2.24e-14 3.49e+00  8.39e-01     9s
   3   1.15203444e+05 -2.40839214e+04  8.66e-15 1.92e+00  1.60e-01    10s
   4   9.73954533e+04 -1.28183781e+04  7.55e-15 3.12e-01  1.16e-01    11s
   5   8.73177824e+04 -7.60038821e+03  6.00e-15 2.41e-01  9.47e-02    11s
   6   7.41628015e+04 -8.83953723e+02  5.33e-15 6.96e-01  6.37e-02    12s
   7   5.79684688e+04  4.68900904e+03  1.51e-14 4.46e-01  3.85e-02    13s
   8   4.86856174e+04  6.01794877e+03  1.31e-14 3.81e-01  2.98e-02    13s
   9   4.49126776e+04  7.67927690e+03  1.10e-14 3.15e-01  2.52e-02    14s
  10   4.21241034e+04  8.80742147e+03  8.72e-15 2.68e-01  2.20e-02    15s
  11   4.09754328e+04  9.78030757e+03  1.02e-14 2.28e-01  2.01e-02    15s
  12   3.67079145e+04  1.11283770e+04  1.69e-14 1.82e-01  1.60e-02    16s
  13   3.34807607e+04  1.20716878e+04  3.96e-14 1.57e-01  1.33e-02    17s
  14   3.14539023e+04  1.35847953e+04  3.53e-14 1.24e-01  1.08e-02    18s
  15   2.96277791e+04  1.47159757e+04  2.40e-14 1.00e-01  8.93e-03    18s
  16   2.81891301e+04  1.57035595e+04  2.19e-14 7.97e-02  7.38e-03    19s
  17   2.74795698e+04  1.63729170e+04  1.78e-14 6.77e-02  6.51e-03    20s
  18   2.64678539e+04  1.71300396e+04  1.57e-14 5.34e-02  5.41e-03    21s
  19   2.49169590e+04  1.76063112e+04  1.78e-14 4.50e-02  4.24e-03    22s
  20   2.43914930e+04  1.81364439e+04  2.02e-14 3.69e-02  3.61e-03    22s
  21   2.39449828e+04  1.86732443e+04  1.69e-14 2.86e-02  3.01e-03    23s
  22   2.33475826e+04  1.89683048e+04  2.49e-14 2.42e-02  2.50e-03    24s
  23   2.30037916e+04  1.93348255e+04  2.18e-14 1.90e-02  2.08e-03    25s
  24   2.26755332e+04  1.96137823e+04  1.98e-14 1.49e-02  1.73e-03    26s
  25   2.23577128e+04  1.98739385e+04  2.38e-14 1.14e-02  1.40e-03    27s
  26   2.21312117e+04  2.00311637e+04  2.93e-14 9.18e-03  1.18e-03    28s
  27   2.19941018e+04  2.01407077e+04  4.53e-14 7.80e-03  1.04e-03    28s
  28   2.18041869e+04  2.02489049e+04  5.93e-14 6.43e-03  8.70e-04    29s
  29   2.16832101e+04  2.03289204e+04  5.08e-14 5.41e-03  7.56e-04    30s
  30   2.15629895e+04  2.04106575e+04  7.06e-14 4.37e-03  6.42e-04    31s
  31   2.14925047e+04  2.04713753e+04  5.06e-14 3.64e-03  5.67e-04    32s
  32   2.14105414e+04  2.05274477e+04  5.33e-14 2.98e-03  4.89e-04    33s
  33   2.13001578e+04  2.05842710e+04  5.25e-14 2.32e-03  3.96e-04    34s
  34   2.11979029e+04  2.06142124e+04  8.76e-14 1.98e-03  3.24e-04    34s
  35   2.11508465e+04  2.06527423e+04  1.13e-13 1.68e-03  2.75e-04    35s
  36   2.10985983e+04  2.06731253e+04  1.12e-13 1.51e-03  2.35e-04    36s
  37   2.10872077e+04  2.06849196e+04  1.10e-13 1.39e-03  2.22e-04    37s
  38   2.10712147e+04  2.06904918e+04  1.35e-13 1.33e-03  2.10e-04    38s
  39   2.10498771e+04  2.07097384e+04  1.19e-13 1.10e-03  1.87e-04    39s
  40   2.10312602e+04  2.07231966e+04  1.17e-13 9.54e-04  1.69e-04    40s
  41   2.10043395e+04  2.07362479e+04  3.08e-13 7.93e-04  1.47e-04    41s
  42   2.09758241e+04  2.07447050e+04  2.95e-13 6.77e-04  1.26e-04    42s
  43   2.09517987e+04  2.07523361e+04  2.66e-13 5.74e-04  1.09e-04    43s
  44   2.09346549e+04  2.07622270e+04  3.09e-13 4.53e-04  9.39e-05    43s
  45   2.09056727e+04  2.07668648e+04  4.84e-13 3.90e-04  7.58e-05    44s
  46   2.08868124e+04  2.07709688e+04  4.01e-13 3.33e-04  6.34e-05    45s
  47   2.08786281e+04  2.07744956e+04  4.53e-13 2.90e-04  5.69e-05    46s
  48   2.08720228e+04  2.07794347e+04  4.49e-13 2.28e-04  5.03e-05    47s
  49   2.08627433e+04  2.07808724e+04  7.87e-13 2.08e-04  4.46e-05    47s
  50   2.08499411e+04  2.07833394e+04  8.97e-13 1.74e-04  3.63e-05    48s
  51   2.08399606e+04  2.07853321e+04  1.23e-12 1.47e-04  2.98e-05    49s
  52   2.08352162e+04  2.07871499e+04  1.63e-12 1.24e-04  2.62e-05    50s
  53   2.08275148e+04  2.07880717e+04  2.03e-12 1.12e-04  2.16e-05    50s
  54   2.08240937e+04  2.07900357e+04  2.21e-12 8.77e-05  1.86e-05    51s
  55   2.08210848e+04  2.07908609e+04  2.01e-12 7.98e-05  1.65e-05    52s
  56   2.08168482e+04  2.07916585e+04  1.80e-12 6.61e-05  1.38e-05    53s
  57   2.08146155e+04  2.07926970e+04  1.64e-12 5.49e-05  1.19e-05    54s
  58   2.08119851e+04  2.07934066e+04  2.52e-12 4.35e-05  1.01e-05    54s
  59   2.08094924e+04  2.07939883e+04  2.58e-12 3.60e-05  8.43e-06    55s
  60   2.08085289e+04  2.07942952e+04  2.64e-12 3.20e-05  7.74e-06    56s
  61   2.08075367e+04  2.07945592e+04  2.55e-12 2.87e-05  7.05e-06    56s
  62   2.08060980e+04  2.07949150e+04  3.50e-12 2.42e-05  6.07e-06    57s
  63   2.08043613e+04  2.07953162e+04  8.73e-12 1.98e-05  4.92e-06    58s
  64   2.08032734e+04  2.07957941e+04  7.74e-12 1.45e-05  4.05e-06    59s
  65   2.08028956e+04  2.07959962e+04  7.32e-12 1.19e-05  3.72e-06    60s
  66   2.08017207e+04  2.07961408e+04  5.82e-12 1.05e-05  3.01e-06    60s
  67   2.08013553e+04  2.07962864e+04  5.37e-12 8.46e-06  2.73e-06    61s
  68   2.08007434e+04  2.07964083e+04  4.54e-12 6.85e-06  2.33e-06    62s
  69   2.08004770e+04  2.07965338e+04  4.21e-12 5.58e-06  2.12e-06    63s
  70   2.07997937e+04  2.07966137e+04  9.51e-12 4.63e-06  1.71e-06    64s
  71   2.07990440e+04  2.07967179e+04  7.30e-12 3.62e-06  1.25e-06    65s
  72   2.07984977e+04  2.07967780e+04  8.44e-12 2.94e-06  9.30e-07    65s
  73   2.07982826e+04  2.07968383e+04  9.79e-12 2.37e-06  7.80e-07    66s
  74   2.07982195e+04  2.07968653e+04  9.41e-12 2.12e-06  7.30e-07    67s
  75   2.07979980e+04  2.07968890e+04  8.55e-12 1.77e-06  5.99e-07    68s
  76   2.07978218e+04  2.07969438e+04  1.00e-11 1.28e-06  4.73e-07    69s
  77   2.07975894e+04  2.07969947e+04  3.25e-11 7.49e-07  3.20e-07    70s
  78   2.07974598e+04  2.07970249e+04  2.06e-11 5.75e-07  2.33e-07    71s
  79   2.07973593e+04  2.07970372e+04  2.61e-11 3.51e-07  1.73e-07    71s
  80   2.07973019e+04  2.07970553e+04  2.37e-11 1.91e-07  1.32e-07    72s
  81   2.07972406e+04  2.07970656e+04  6.82e-11 1.09e-07  9.31e-08    73s
  82   2.07971823e+04  2.07970684e+04  5.49e-10 9.03e-08  6.10e-08    74s
  83   2.07971696e+04  2.07970737e+04  4.36e-10 6.07e-08  5.11e-08    75s
  84   2.07971208e+04  2.07970775e+04  9.13e-10 4.00e-08  2.33e-08    75s
  85   2.07971062e+04  2.07970801e+04  2.32e-09 2.40e-08  1.41e-08    76s
  86   2.07971002e+04  2.07970806e+04  1.22e-08 2.15e-08  1.06e-08    77s
  87   2.07970865e+04  2.07970832e+04  3.86e-09 6.96e-09  1.86e-09    77s
  88   2.07970848e+04  2.07970847e+04  3.17e-09 5.32e-12  3.66e-11    78s

Barrier solved model in 88 iterations and 77.88 seconds (30.23 work units)
Optimal objective 2.07970848e+04

Crossover log...

  384115 variables added to crossover basis                       80s
  388104 variables added to crossover basis                       85s
  390173 variables added to crossover basis                       90s
  391673 variables added to crossover basis                       95s

  247775 DPushes remaining with DInf 0.0000000e+00                99s
      37 DPushes remaining with DInf 0.0000000e+00               164s
       0 DPushes remaining with DInf 0.0000000e+00               165s

       8 PPushes remaining with PInf 0.0000000e+00               165s
       0 PPushes remaining with PInf 0.0000000e+00               165s

  Push phase complete: Pinf 0.0000000e+00, Dinf 4.1798952e-11    165s


Solved with barrier
Iteration    Objective       Primal Inf.    Dual Inf.      Time
   20227    2.0797085e+04   0.000000e+00   0.000000e+00    166s

Solved in 20227 iterations and 165.82 seconds (119.36 work units)
Optimal objective  2.079708476e+04
